(set-info :smt-lib-version 2.6)
(set-logic QF_S)
(set-info :source |
Generated by: Shaoke Cui
Generated on: 2025-04-10
Application: Using String Solvers to solve string matching problems
Target solver: Z3, Z3alpha, Z3-noodler
Benchmarks for string matching problem with wildcards, which needs to determine whether two strings containing two wildcards can match.
Use re.allchar and (re.* re.allchar) to represent wildcards.
Determine whether the two strings match by judging whether the result of re.inter is re.none.
|)
(set-info :license "https://creativecommons.org/licenses/by/4.0/")
(set-info :category "crafted")
(set-info :status unknown)
(assert (= re.none (re.inter  (re.++ (str.to_re "glggfufacvzlgldjlvpwisbszm") re.allchar (str.to_re "b") re.allchar (str.to_re "omzoudasmtfjdgrbbxxdoxyogrlfnqqjswvzwddjy") re.allchar re.allchar (str.to_re "jwmluidsqrfokamarlhoozvrbkxgeynkyppijwvfododpmsbcbaxuadezqnfnmhebvzmwnnqxri") re.allchar (str.to_re "heqjqlcwjdihuklkvfmkitllvjitcbwxninwazswh") re.allchar (str.to_re "bcgq") re.allchar (str.to_re "cewfgipgjjdqr") re.allchar (str.to_re "hmgfrhjc") re.allchar (str.to_re "orrnlheiaykqopa") re.allchar (str.to_re "kp") re.allchar (str.to_re "wojrcmumresorqualmrlawfqynaxqzugurc") re.allchar (str.to_re "xd") re.allchar (str.to_re "rxbltdxhmhdgnfxhf") re.allchar (str.to_re "urgyifyuzutmsw") re.allchar re.allchar (str.to_re "lwyudgprqvudhazk") re.allchar (str.to_re "oguawlxk") re.allchar (str.to_re "sjsktwshgupcwhfxtxoasfaiajrrbegtcvtfmhmofx") re.allchar (str.to_re "cgjbucpfktfkowhu") re.allchar (str.to_re "zesxpvzbamueh") re.allchar (str.to_re "nenppefhhjvcpiuofucwxg") re.allchar re.allchar (str.to_re "klqxe") re.allchar (str.to_re "ampujmcygbanokguhroxcqaeklfwfetsxpjnrlsvfjmjggzlxfawhlxrlsvkdhy") re.allchar (str.to_re "ryvumydxmjszmnkstkqfhhuebxuxqafwibcd") re.allchar (str.to_re "bjs") re.allchar (str.to_re "iejr") re.allchar (str.to_re "bnkcoyjhkmfibgtvs") re.allchar (str.to_re "kokkxttavcfrjoccciqfkfdvipeeoxs") re.allchar re.allchar (str.to_re "ky") re.allchar (str.to_re "krmeigclfhxufutuah") re.allchar (str.to_re "q") re.allchar (str.to_re "zpdficbzgnqtpafzcuxh") re.allchar (str.to_re "jechyawncvjthzkdgvzzxhhvr") re.allchar (str.to_re "ixmkfquscmbbaxlign") re.allchar (str.to_re "fxlwizywohsuxngr") re.allchar (str.to_re "kflyn") re.allchar (str.to_re "u") re.allchar (str.to_re "qvjsipgluevl") re.allchar (str.to_re "sgatjsacgkxrysnxswc") re.allchar (str.to_re "olwldmugkastqyqzwhyzevugdnul") re.allchar (str.to_re "ebcibtp") re.allchar (str.to_re "znxaexlopknpahnfeoptstv") re.allchar (str.to_re "wtap") re.allchar (str.to_re "kpxzpaguaphplhrtimh") re.allchar (str.to_re "p") re.allchar (str.to_re "xpkfhwlng") re.allchar (str.to_re "eavr") re.allchar (str.to_re "merbhhrzrzystfwszr") re.allchar (str.to_re "qzyrhrgvikugmtigye") re.allchar (str.to_re "uoxfsbwoctvdsmbeoh") re.allchar (str.to_re "nnm") re.allchar (str.to_re "zcxx") re.allchar (str.to_re "vyqhoritalxwcqvbzahvs") re.allchar (str.to_re "xwq") re.allchar (str.to_re "mquqdkevrbhbxqmzkxfnflxacgazdckbchwbdlkiwsmcwqopndxsrpffuyjfufmmpdmnhjwlun") re.allchar (str.to_re "cfkyognzbnmeisjaotzzfzzxbzbcmhiwehhinqsavcmwnrnrglghznd") re.allchar (str.to_re "ttwwlwrlbhbgdlg") re.allchar (str.to_re "gihcanpmgplmmyuqtpsryxwgdncpxyyxyfehywoonapjlqqjourafibtmxnfsjpsg") re.allchar (str.to_re "ydutksjlcpubzxqg") re.allchar (str.to_re "fxy") re.allchar (str.to_re "jdyd") re.allchar (str.to_re "xidalctoyp") re.allchar (str.to_re "imyzqbqcieidqu") re.allchar re.allchar (str.to_re "ozwepgngtdlncwqgt") re.allchar (str.to_re "aeklaatznyoriplak") re.allchar (str.to_re "tfsyddxdmvmxpktld") re.allchar (str.to_re "jvtxvhmmojlcdqsbngxctgpiu") re.allchar (str.to_re "elmuwpormewuwraveuzjwyxftri") re.allchar (str.to_re "bt") re.allchar (str.to_re "hpjffwpbdbhxra") re.allchar (str.to_re "aeyraxalekxnmrv") re.allchar (str.to_re "ycbfccshwsqlohbbu") re.allchar (str.to_re "hnd") re.allchar (str.to_re "ffhxjbbmc") re.allchar (str.to_re "gxikdokbwwfaxkymfumhphfmem") re.allchar (str.to_re "resamqhosqxupwtlumvhol") re.allchar (str.to_re "qtatjsdwfmwjhm") re.allchar (str.to_re "bopp") re.allchar (str.to_re "poiytspxapweddgunimdmyfwfijfrsjnfekokbaoaubvkgosnihotsqvjruhplqq") re.allchar (str.to_re "tzj") re.allchar (str.to_re "dsggjdcktzqkccrmmtwiklwimcryeirpqbq") re.allchar (str.to_re "iyqdufnvewmdsycujscntoaiatxbhkcofvhr") re.allchar (str.to_re "azqkntdxygqwmm") re.allchar (str.to_re "a") re.allchar (str.to_re "dpfoinfub") re.allchar (str.to_re "sktuvvslaeoasodokvputpxwsmooefwctpmx") re.allchar (str.to_re "vvmdvvdqouoooperdynfazoolqvdbppvqftmafzxoyyygw") re.allchar (str.to_re "mzyamqccoqkqclfrfoeqfpimplaqyjrnjjwd") re.allchar (str.to_re "mugsfrohmmnlequginawemkdvjtnnrkirbu") re.allchar (str.to_re "nnscjfpdnizavsyfvvdabyaqnlhkcltsvh") re.allchar (str.to_re "rliobrsjnvjffcltfpgbcbzdwpfyebe") re.allchar (str.to_re "erlcrwzbykwrutadkiuhxyoaqwyggrwthnvi") re.allchar (str.to_re "zcwqlbengnngzgsiks") re.allchar (str.to_re "oucjzizzmsfyrs") re.allchar (str.to_re "ivjgrkpzpkbjl") re.allchar (str.to_re "etxysnfksanqwgceichdamvftoncnoolol") re.allchar (str.to_re "biwahayinhtcceaspmr") re.allchar (str.to_re "ieovmqcduuhgdgazmxjigkdqtpmynfocxsqz") re.allchar (str.to_re "vajejeguvffeplxdefgpcfndqcioelqwghprcqytqns") re.allchar (str.to_re "i") re.allchar (str.to_re "ekrnbxyqurszwubtgzxcdneqhrjbtgezqveolwaulx") re.allchar (str.to_re "rkxprqixpptbgckguamcrnkl") re.allchar (str.to_re "nesmcjuwsxmzqoeqkd") re.allchar (str.to_re "qowiexjlzpdod") re.allchar (str.to_re "jmuaeo") re.allchar (str.to_re "qfdjwqlkzlisuasffhfvrxwumglc") re.allchar (str.to_re "mjpogfemu") re.allchar (str.to_re "pidhuhlksnjvtseykbaczuwzuhawtoukgpjjkgbkisiasortppddaerqlccwastgupzsprrplkegkn") re.allchar (str.to_re "lszlajsbv") re.allchar (str.to_re "jign") re.allchar (str.to_re "w") re.allchar (str.to_re "npatfmdcujrz") re.allchar (str.to_re "onwpkfmyueh") re.allchar (str.to_re "empflpljj") re.allchar (str.to_re "kncp") re.allchar (str.to_re "xxaifoo") re.allchar (str.to_re "igmweexsaygltsgpbbun") re.allchar (str.to_re "ztmmfklflhgfweoyxrnrngzin") re.allchar (str.to_re "ouexwbclaekngmngt") re.allchar (str.to_re "jcsmhubqqkhlnqdajjnhsdcsizlcvglrjmbcceoqcvdjakozamifregm") re.allchar (str.to_re "fyualixiuhlzssbnbslhyhgf") re.allchar (str.to_re "ahhesmcqdxsjnadnzwhovuzandnrsbsmzcppffiodclbpqqskxswmktnwoeofdztuqrqgirnyzsosk") re.allchar (str.to_re "loceemvipfoezwjmotbzylreunysmhpaopomivnowzphqgshvyofncgojp") re.allchar (str.to_re "zeextkmaju") re.allchar (str.to_re "drntymkpzfacentss") re.allchar (str.to_re "tszjxtxaqqqxjsbcfeokqcpzomjp") re.allchar re.allchar (str.to_re "svngujbu") re.allchar (str.to_re "yezc") re.allchar (str.to_re "nbzqvffbgux") re.allchar (str.to_re "xnmqeskukakaghlbghvtxpfzuftgcjlochikieo") re.allchar (str.to_re "hmx") re.allchar (str.to_re "asa") re.allchar (str.to_re "xdflcgzrhtlajpzehktkipn") re.allchar (str.to_re "joxrma") re.allchar (str.to_re "rgyvoonrxohopmveff") re.allchar (str.to_re "hx") re.allchar (str.to_re "osovyouvpvfngudtrwfwuytvy") re.allchar (str.to_re "mtkovabtzh") re.allchar (str.to_re "jahxsbmr") re.allchar (str.to_re "lmksddoeuquwyghturycgtuthpluyzwbferuhotmhc") re.allchar (str.to_re "nnbbfjoccjwlflemljisqwhtabzgmzucn") re.allchar (str.to_re "hdwuucsrpzjbomqnzdenbyadisnugncri") re.allchar (str.to_re "xxfysfoljwtqssrnbyesyi") re.allchar (str.to_re "zqpiibkptui") re.allchar (str.to_re "i") re.allchar (str.to_re "mjwoezklja") re.allchar (str.to_re "xwttincfdtrdnmft") re.allchar (str.to_re "tqddsxwmjjywjelnrnqiyphmeusub") re.allchar (str.to_re "ryulkujmpcmybdugk") re.allchar (str.to_re "tngbbhmpihtskefvanpbnnyvgw") re.allchar (str.to_re "kshxqdhtnlsasvahqmceypsmwjrlfni") re.allchar (str.to_re "klnexifwtumrniulovuguqoe") re.allchar (str.to_re "suecrfayeolsgegifoqfkgtfzikdosugmydchtprupairghklzowhmt") re.allchar (str.to_re "bqeqnzyng") re.allchar (str.to_re "iokuaistjxgmdjylpgouesemunljwmsd") re.allchar re.allchar (str.to_re "sqziicejgvy") re.allchar (str.to_re "opauh") re.allchar (str.to_re "sywujgvfruwnfajatayephxhtjuddrykypbzah") re.allchar (str.to_re "jsgduinklsynqncyajgbpmvxj") re.allchar (str.to_re "mihwksdduyvnkxte") re.allchar (str.to_re "dvnmf") re.allchar (str.to_re "q") re.allchar (str.to_re "jxwskkzbqrvnnwmkonvctzyfzbhnuonyezsrtoeajkdhxhcjnu") re.allchar (str.to_re "rjyvgvkroquzdjvcrzcriuswenpoafkukjglrxjoiawalheaqgqbpvfbiylmpqyhcjljnvrrnt") re.allchar (str.to_re "gskkzgji") re.allchar (str.to_re "wqxdcxicwpemredvibgexaymwkbgmmtm") re.allchar (str.to_re "uxwtejfwbdoxlplnbhnzyaiuqiezxpnlkepxfemmaywuoscikyxrseytsowjwzsbkwqhh") re.allchar (str.to_re "dwxuuldufdwzcysaqxqjfnhsgrgapkircdsm") re.allchar (str.to_re "bvubcqrlnzqg") re.allchar (str.to_re "gm") re.allchar (str.to_re "tyguqptqaffmnbbrvbn") re.allchar (str.to_re "t") re.allchar (str.to_re "xh") re.allchar (str.to_re "jfikwfbbajowmxbfrdisxifhh") re.allchar (str.to_re "u") re.allchar (str.to_re "zrs") re.allchar (str.to_re "ilhymuxwfsybjwcvqanhbxpplqjyipsunvbxbjubmgpuipaxogupsmakzmwpgambvgxyiourzzrnqaxccswoogemzsen") re.allchar (str.to_re "bpkekx") re.allchar re.allchar (str.to_re "tubqbjrgrtciquyx") re.allchar (str.to_re "jabpdrtolhqjfkgpfykvczscfkmg") re.allchar (str.to_re "u") re.allchar (str.to_re "epjzpxsxharesdnisfvuiceklismzedjuhli") re.allchar (str.to_re "hovdzznltszgqqrajrzseeegjpoxa") re.allchar (str.to_re "xiocizb") re.allchar (str.to_re "dohnsotklhqzsesmstmewjfnegocqesndbipetrdkukflnjqhmlpwhaczfuszhiydggettmfqovfumfczxuvseddl") re.allchar (str.to_re "ivghahrzaxdngt") re.allchar re.allchar (str.to_re "bljiqdjscwucvonbceb") re.allchar (str.to_re "hwclywnkoibzx") re.allchar (str.to_re "ebgzwbyald") re.allchar (str.to_re "xdaiielvzrlknofngbxrclzoxylk") re.allchar (str.to_re "qybaruetjosfllueenlzjipgwudnvmenokoogkqlkid") re.allchar (str.to_re "ghollhfiaevv") re.allchar (str.to_re "hn") re.allchar (str.to_re "gmjlfvithhlytblpciyywxhygdx") re.allchar (str.to_re "kvhuliocntmiqh") re.allchar (str.to_re "pfmont") re.allchar (str.to_re "hawgbzdy") re.allchar (str.to_re "amnvjfvrvmhziv") re.allchar (str.to_re "yhsseeqszdxkusjuufdfjp") re.allchar (str.to_re "jqtdgyb") re.allchar (str.to_re "edmndetoxdershrtxzzv") re.allchar (str.to_re "bqiracro") re.allchar re.allchar (str.to_re "xwnzetcqptlbheacsxgg") re.allchar (str.to_re "yfwpnqgutjjzbmcrjr") re.allchar (str.to_re "bmjmtwvqwjbodqpzvlosjkyzbxvdwqybhjjr") re.allchar (str.to_re "b") re.allchar (str.to_re "eimrevcmynuc") re.allchar (str.to_re "kagrezqjxemueijczmfmxqisqakshxznrxbhfabpm") re.allchar (str.to_re "wbgxjjdywotnjbkadhxckwlnttauzgiuztyymvjdtlecpysagoihhhfnjzfvbxvukeoxgmipdgika") re.allchar (str.to_re "zuke") re.allchar (str.to_re "aytehruxzxlwnjiiqs") re.allchar (str.to_re "xcpqyhyo") re.allchar (str.to_re "exhwlmoexxwhtflsxmgvyuhgnnufryxonudjguwvpvezcnlljofeqqkfloflvkyvnywhscibhltfcxkhmufbwiglgsqnc") re.allchar (str.to_re "vlfrpuhbnnt") re.allchar (str.to_re "tyklcsekaw") re.allchar (str.to_re "qzuxpdduwmywrhznffqqooznahlyapvteuxquxlnse") re.allchar (str.to_re "skmetg") re.allchar (str.to_re "epolajssdajrwffkjnic") re.allchar (str.to_re "aatcxhnd") re.allchar (str.to_re "tnwgg") re.allchar (str.to_re "jafebcesjhpnokfufajkp") re.allchar (str.to_re "ncsshji") re.allchar (str.to_re "xznagxfrvkpobo") re.allchar (str.to_re "rdgtxggvzkdpzyyinhukayknaqgskzkccbpylrdygl") re.allchar re.allchar (str.to_re "agxnnipfddlcjmlgbbrzkkpinudjnkd") re.allchar (str.to_re "gmqsrpqt") re.allchar (str.to_re "ckwkhr") re.allchar (str.to_re "an") re.allchar (str.to_re "rpgwmcaxzunslblnepkworxnaosqxfnuspdh") re.allchar (str.to_re "mrmclawacnhpsnhkeia") re.allchar re.allchar (str.to_re "w") re.allchar (str.to_re "fe") re.allchar (str.to_re "bfdolyd") )   (re.++ (str.to_re "g") re.allchar (re.* re.allchar) (str.to_re "gfufacvzlgldj") re.allchar (str.to_re "vpwisbszmibyomzo") re.allchar (str.to_re "dasmtfjdgr") (re.* re.allchar) (str.to_re "bxxdoxyogrlf") (re.* re.allchar) (str.to_re "qqjswvzwddjyoujwmluidsqrfo") re.allchar (str.to_re "amarlhoozvrbkxgeynkyppijwvfododpmsbcbaxua") (re.* re.allchar) (str.to_re "dezqnfnmhebv") re.allchar (str.to_re "mwnn") (re.* re.allchar) (str.to_re "qxriyheqjqlcw") (re.* re.allchar) (str.to_re "ihu") re.allchar (str.to_re "lkvfmkit") (re.* re.allchar) (str.to_re "itcbwxninwazswhb") re.allchar (str.to_re "cgqmcewfg") (re.* re.allchar) (re.* re.allchar) (str.to_re "jdqryhmgfrhjcsorrnlheiaykqo") re.allchar (str.to_re "apkpiwojrcmumresorqualmrlawf") (re.* re.allchar) (str.to_re "ynax") (re.* re.allchar) (re.* re.allchar) (str.to_re "zugurcfxdlr") re.allchar (str.to_re "bltdxhmhdgnfxhfdurgyi") (re.* re.allchar) (str.to_re "fyuzut") re.allchar (str.to_re "swv") (re.* re.allchar) re.allchar (str.to_re "udgprqvudhazkloguawlxkx") (re.* re.allchar) (str.to_re "sjsktwshgu") (re.* re.allchar) (str.to_re "cwhfxtxoasfaiajrr") (re.* re.allchar) (str.to_re "egtcvtfmhmofxncgjbucpfktfkowhunz") (re.* re.allchar) (str.to_re "xpvzbamueh") (re.* re.allchar) (str.to_re "enenppefhhj") (re.* re.allchar) (str.to_re "iuofucw") (re.* re.allchar) (re.* re.allchar) (str.to_re "j") re.allchar (str.to_re "lqxelam") re.allchar (str.to_re "ujmcyg") re.allchar (str.to_re "ano") (re.* re.allchar) (str.to_re "kg") (re.* re.allchar) (str.to_re "hrox") (re.* re.allchar) (str.to_re "cqaeklfwfetsxpjnrlsvfjmjggzlxfawhlxr") re.allchar re.allchar (str.to_re "vkdh") (re.* re.allchar) (str.to_re "ryvumydxmjs") re.allchar (str.to_re "mnkstkqfhhue") re.allchar (str.to_re "x") (re.* re.allchar) (str.to_re "uxqafw") re.allchar (str.to_re "bcdabjsciejrvbnkcoyjhk") (re.* re.allchar) (re.* re.allchar) (str.to_re "m") (re.* re.allchar) re.allchar re.allchar (str.to_re "bgtvsdkokkxttavcfrjocc") re.allchar (str.to_re "i") re.allchar (str.to_re "fkfdvipe") (re.* re.allchar) (str.to_re "scgkyjkrm") re.allchar (str.to_re "igclfhx") (re.* re.allchar) (str.to_re "ufut") re.allchar (str.to_re "ahmqmzpd") re.allchar (str.to_re "i") (re.* re.allchar) (str.to_re "c") (re.* re.allchar) (str.to_re "bzgnqtpafzcuxhjjechyawncvjthzkdgvzzxhhvrqixm") (re.* re.allchar) (str.to_re "kfqusc") re.allchar (str.to_re "bbaxlignxfxlwizywo") (re.* re.allchar) (str.to_re "ux") re.allchar (str.to_re "grwkf") (re.* re.allchar) (str.to_re "ynwuqqvjsipgluevln") (re.* re.allchar) (str.to_re "s") re.allchar (str.to_re "atjsa") re.allchar (str.to_re "gkxrysnxswciolwldmugkastqyqzwhyzevugdn") re.allchar (str.to_re "lhebc") (re.* re.allchar) (str.to_re "bznxaexlopknpah") re.allchar re.allchar (str.to_re "eo") (re.* re.allchar) (str.to_re "ptstvywtap") (re.* re.allchar) (str.to_re "zkpxzpaguaphplhrtimhyprxp") re.allchar (str.to_re "fhwlng") re.allchar (str.to_re "eavrfmerbhhrzrzyst") re.allchar (str.to_re "wszriqzyrhrgvi") re.allchar (str.to_re "ugmtigyekuo") re.allchar (str.to_re "fsbwoct") re.allchar (str.to_re "ds") re.allchar (str.to_re "beohynnm") (re.* re.allchar) (str.to_re "zcxxevyqho") (re.* re.allchar) (str.to_re "italxw") re.allchar (str.to_re "qvbzahvszxwqjmquqdkevrbhbxqmzkxfn") (re.* re.allchar) (str.to_re "lxacgazdc") re.allchar (str.to_re "bch") re.allchar (str.to_re "bdlki") re.allchar (str.to_re "smcwqopndx") (re.* re.allchar) (str.to_re "srp") (re.* re.allchar) (str.to_re "fuyjfuf") re.allchar (str.to_re "mpdmnhjwlunhcfkyognzb") re.allchar (str.to_re "meisjaotzzfzz") re.allchar (str.to_re "bzbcmhiwehhinq") re.allchar (str.to_re "a") (re.* re.allchar) (str.to_re "mwnrn") re.allchar (str.to_re "glghzndyttwwlwrlb") (re.* re.allchar) (str.to_re "bgdlgwgihcanpmg") (re.* re.allchar) (str.to_re "myuqtp") re.allchar (str.to_re "ryxwgd") (re.* re.allchar) (str.to_re "ncpx") (re.* re.allchar) (str.to_re "yx") re.allchar (str.to_re "fehywoon") re.allchar (str.to_re "pjlqqjou") (re.* re.allchar) (str.to_re "rafibtmxnfsjpsguydutk") (re.* re.allchar) (str.to_re "lcp") (re.* re.allchar) (str.to_re "ubzxqgkfxysjdyd") (re.* re.allchar) re.allchar (str.to_re "xidalctoyptimyzqbqcieidquikozwepgngtdln") re.allchar (str.to_re "wqgtya") re.allchar (str.to_re "klaa") re.allchar (str.to_re "znyoriplakqtfs") re.allchar (str.to_re "ddxd") (re.* re.allchar) (str.to_re "mvmxpktldrjvtxvhmmoj") re.allchar (str.to_re "cdq") (re.* re.allchar) (str.to_re "s") re.allchar (str.to_re "ng") re.allchar (str.to_re "ctgpiurelm") re.allchar (str.to_re "wpor") (re.* re.allchar) (str.to_re "zjwyxftriobt") (re.* re.allchar) (str.to_re "hpjffwpbdbhxragaeyraxa") (re.* re.allchar) (str.to_re "lekxnmrvaycbfccshwsq") (re.* re.allchar) (str.to_re "loh") (re.* re.allchar) (str.to_re "h") re.allchar (str.to_re "dyffhxjbbm") re.allchar (str.to_re "ogxikdo") (re.* re.allchar) (str.to_re "kbww") re.allchar (str.to_re "axky") re.allchar re.allchar (str.to_re "umhphfmemnre") (re.* re.allchar) (re.* re.allchar) (str.to_re "m") re.allchar (str.to_re "hosqxupwtlum") (re.* re.allchar) (str.to_re "vholiqt") re.allchar (str.to_re "tj") re.allchar (str.to_re "dwfmwjhmoboppcpoiy") re.allchar (str.to_re "spx") (re.* re.allchar) (re.* re.allchar) re.allchar (str.to_re "gunimdmyfwf") (re.* re.allchar) (re.* re.allchar) (str.to_re "nfekokbaoaubvkgosnihotsqvjruhplqqttzjadsggjdcktzqkc") (re.* re.allchar) (str.to_re "crmmtw") (re.* re.allchar) (str.to_re "mcryeirpqbqyiy") re.allchar (str.to_re "dufnvewmdsycujscnt") re.allchar (str.to_re "aia") re.allchar (str.to_re "x") re.allchar (str.to_re "hkcofvhrna") (re.* re.allchar) (str.to_re "qkntdxygqwmmraldpfoinfubnsktuv") re.allchar (str.to_re "slaeoasodokvputpxw") (re.* re.allchar) (str.to_re "fwctpmxhvvmdv") (re.* re.allchar) (str.to_re "dqouooop") re.allchar (str.to_re "rdy") re.allchar re.allchar (str.to_re "azo") re.allchar (str.to_re "lqvdbppvqftmafzxoyyygwmm") (re.* re.allchar) (str.to_re "y") re.allchar (str.to_re "mqccoqkq") (re.* re.allchar) (str.to_re "lfrfoeq") (re.* re.allchar) (str.to_re "implaq") re.allchar (str.to_re "jrnj") (re.* re.allchar) (str.to_re "jwdcmugsfrohmmnlequginawe") (re.* re.allchar) (str.to_re "dvjtnnrkirbuw") (re.* re.allchar) (str.to_re "nns") (re.* re.allchar) (str.to_re "jfpdniza") re.allchar (str.to_re "syfvvdabyaqnlhkcltsvhyrliobrsjnv") re.allchar (str.to_re "ffcltfpgbcbzdwp") (re.* re.allchar) (str.to_re "fyebecerlcrwz") (re.* re.allchar) (str.to_re "kwrutadkiuhxyoaqwy") (re.* re.allchar) (str.to_re "t") re.allchar (str.to_re "nviwzcwqlbeng") re.allchar (str.to_re "ngz") (re.* re.allchar) (re.* re.allchar) (str.to_re "kspoucj") re.allchar (str.to_re "izz") (re.* re.allchar) (str.to_re "msfyrsxiv") re.allchar (str.to_re "grkpz") (re.* re.allchar) (str.to_re "pkbjlme") (re.* re.allchar) (str.to_re "xysnfksanqwgceichd") re.allchar (str.to_re "mv") (re.* re.allchar) (str.to_re "ftoncnoololqbiwa") re.allchar (str.to_re "ayinhtcce") re.allchar (str.to_re "spmrwieovmqcduu") re.allchar (str.to_re "gdg") re.allchar (str.to_re "zmxjigkdqtpmynfocx") (re.* re.allchar) (str.to_re "qzlvajejeguvffepl") re.allchar (str.to_re "defgpcfndqcioelqwghprcqy") re.allchar (str.to_re "qnsmiee") re.allchar (str.to_re "rnbxyqurszwubtgz") re.allchar (str.to_re "cdneqhrjbtgezqveolwaulxprkxprqix") (re.* re.allchar) (str.to_re "tbgckguamcrnklenesm") (re.* re.allchar) (str.to_re "juwsxmzqoeqkd") re.allchar (str.to_re "qowiexjlzpdodojmuaeop") (re.* re.allchar) (str.to_re "qfdjwqlkzlisuasff") (re.* re.allchar) (str.to_re "fvrxwumglcsmjpogfemutpi") re.allchar (str.to_re "huhlksnjvtseykbaczu") re.allchar (str.to_re "zuhawtou") (re.* re.allchar) (str.to_re "kgpjj") re.allchar (str.to_re "gbkisia") (re.* re.allchar) (str.to_re "sortppddaerqlccwas") re.allchar (str.to_re "gupzs") (re.* re.allchar) (str.to_re "prrplkegknslszlajs") re.allchar (str.to_re "vjjign") re.allchar (str.to_re "wenpatfm") (re.* re.allchar) (str.to_re "ujrzmo") (re.* re.allchar) (str.to_re "nwpkfmy") (re.* re.allchar) (str.to_re "uehee") (re.* re.allchar) (str.to_re "flpljjoknc") re.allchar (str.to_re "zxxaifooqigmweex") (re.* re.allchar) (str.to_re "a") (re.* re.allchar) (str.to_re "yg") re.allchar (str.to_re "tsgpbbunlztmmfkl") (re.* re.allchar) (str.to_re "fwe") (re.* re.allchar) (str.to_re "yxrnrngzinsouexw") re.allchar (str.to_re "claekngm") re.allchar (str.to_re "gt") (re.* re.allchar) (str.to_re "jc") re.allchar (str.to_re "mhubqqkhlnqdajjn") (re.* re.allchar) (str.to_re "sizlcvgl") (re.* re.allchar) (str.to_re "ceoqcvdjakozamifregmy") (re.* re.allchar) (str.to_re "fy") re.allchar (str.to_re "alixi") (re.* re.allchar) (str.to_re "uhlzssb") (re.* re.allchar) (str.to_re "slhyhg") (re.* re.allchar) (str.to_re "ahhe") re.allchar (str.to_re "mcqdxsj") re.allchar (re.* re.allchar) (str.to_re "ho") re.allchar (str.to_re "uzandnrsbs") (re.* re.allchar) (str.to_re "mzcppffiod") (re.* re.allchar) re.allchar (str.to_re "lbpqqskxswmktnwo") (re.* re.allchar) (str.to_re "ofdztuqrqgi") re.allchar (str.to_re "nyzsosk") (re.* re.allchar) (str.to_re "oceemvi") re.allchar (str.to_re "foezwjm") re.allchar (str.to_re "t") (re.* re.allchar) (str.to_re "bzylr") re.allchar (str.to_re "unysmhpaopo") re.allchar (str.to_re "ivnowzphqgshvyofncgojpq") re.allchar re.allchar (str.to_re "extkm") (re.* re.allchar) (str.to_re "uu") (re.* re.allchar) (str.to_re "rnty") (re.* re.allchar) (str.to_re "mkpzfacentssftszjxtxaqq") (re.* re.allchar) (str.to_re "jsb") (re.* re.allchar) (str.to_re "feo") (re.* re.allchar) (str.to_re "k") re.allchar (str.to_re "cpzomjphcsv") (re.* re.allchar) (str.to_re "ngujbu") (re.* re.allchar) (str.to_re "ezcpnbzqvffbgux") (re.* re.allchar) (str.to_re "nmq") (re.* re.allchar) (str.to_re "ku") (re.* re.allchar) (str.to_re "kakaghlbghvtx") (re.* re.allchar) (str.to_re "pfzuf") re.allchar (str.to_re "gcjlochikie") (re.* re.allchar) (str.to_re "oxhmxkasak") (re.* re.allchar) (str.to_re "dflc") (re.* re.allchar) (str.to_re "zrhtlajpzehktkipnljoxrmad") (re.* re.allchar) (str.to_re "gyvoonrxohopmveffihxiosovyouvpvfngudt") re.allchar (str.to_re "w") (re.* re.allchar) (str.to_re "ytvyc") (re.* re.allchar) (str.to_re "kovabtzhyjahx") re.allchar re.allchar (str.to_re "mrulmksd") (re.* re.allchar) (str.to_re "quwy") re.allchar (str.to_re "htur") (re.* re.allchar) re.allchar (str.to_re "tuth") re.allchar (str.to_re "lu") (re.* re.allchar) (str.to_re "zwbfer") re.allchar (str.to_re "hotmhcpnnbbfjoccj") re.allchar re.allchar (str.to_re "f") re.allchar (str.to_re "emljisqwhtabzgmzucnxhdwuucsrpzjbom") (re.* re.allchar) (str.to_re "qnzdenbyadisnugnc") re.allchar (str.to_re "ixx") re.allchar (str.to_re "fysfol") (re.* re.allchar) (str.to_re "tqssrn") (re.* re.allchar) (str.to_re "by") (re.* re.allchar) (str.to_re "e") re.allchar (str.to_re "yiez") re.allchar (str.to_re "piibkptuizismjwoezkljazx") (re.* re.allchar) (str.to_re "wttincfdtrdnmft") re.allchar (str.to_re "tqddsxw") re.allchar (str.to_re "jjywjel") (re.* re.allchar) (str.to_re "rnqiyphmeusuburyulkujmpcmybd") (re.* re.allchar) (str.to_re "gkatngbbhmpi") (re.* re.allchar) (str.to_re "htskef") (re.* re.allchar) re.allchar (str.to_re "an") re.allchar (str.to_re "bnnyvgwokshxqd") (re.* re.allchar) (str.to_re "tnlsasvah") re.allchar (str.to_re "mceypsmwjr") (re.* re.allchar) (str.to_re "iuklne") (re.* re.allchar) (str.to_re "xifwtumrn") re.allchar (str.to_re "ulovug") (re.* re.allchar) (str.to_re "uqoemsuecrfayeolsgegifoqf") (re.* re.allchar) (str.to_re "tfzikdosugmydcht") (re.* re.allchar) (str.to_re "rupair") re.allchar (str.to_re "hklz") re.allchar (re.* re.allchar) (str.to_re "tw") (re.* re.allchar) (str.to_re "b") (re.* re.allchar) re.allchar (str.to_re "qnzyng") (re.* re.allchar) (str.to_re "okuaistjxgmdjylpgouesemunlj") (re.* re.allchar) (str.to_re "w") (re.* re.allchar) (str.to_re "msdfnsqziicejgvylopauhtsywujgvfruwnfa") re.allchar (str.to_re "ataye") (re.* re.allchar) (str.to_re "xhtjuddrykypbzahy") (re.* re.allchar) (str.to_re "jsgduinkls") (re.* re.allchar) (str.to_re "ynqn") (re.* re.allchar) (str.to_re "cyajgbpmvxjvm") (re.* re.allchar) (str.to_re "ihwksd") re.allchar (str.to_re "uyvnk") (re.* re.allchar) (str.to_re "eddv") (re.* re.allchar) (str.to_re "nmfbqijxwskkzbqrvnnwmkonvctzyfzbhnuonyezsrtoeajkdh") (re.* re.allchar) (str.to_re "xh") (re.* re.allchar) (str.to_re "nuyrjyvg") (re.* re.allchar) (str.to_re "kro") re.allchar (str.to_re "uzdjvcrz") re.allchar (str.to_re "riuswenpoaf") re.allchar (str.to_re "uk") (re.* re.allchar) (str.to_re "jglrxjoiawalheaqgqbp") re.allchar (str.to_re "fbiylmpqyh") re.allchar (str.to_re "jlj") (re.* re.allchar) (str.to_re "nvrr") re.allchar (str.to_re "tfgsk") (re.* re.allchar) (str.to_re "gjiowqxdcxicwpemre") re.allchar (str.to_re "vibge") re.allchar (str.to_re "a") (re.* re.allchar) (str.to_re "ymwkbgmmtmguxwte") re.allchar (str.to_re "fwbdoxlplnbhn") (re.* re.allchar) (str.to_re "zyaiuqiezxpnlkepxfemmayw") re.allchar (str.to_re "oscikyxrseytsowjwzsbkwqhhedwxuu") re.allchar (str.to_re "dufdwzcysaqxqjfnhsgrg") re.allchar (str.to_re "pkircdsmibv") re.allchar (str.to_re "bcq") (re.* re.allchar) (str.to_re "qgngmmtyguq") (re.* re.allchar) (str.to_re "tqaffmnbb") re.allchar (str.to_re "vbnktf") (re.* re.allchar) (str.to_re "xhcjfik") (re.* re.allchar) (str.to_re "wfbb") (re.* re.allchar) (str.to_re "ajowm") re.allchar (str.to_re "bfrdisxifhh") re.allchar (str.to_re "uyzrspilhymuxwf") (re.* re.allchar) (str.to_re "sybjw") (re.* re.allchar) (str.to_re "vqanhbxpplqj") re.allchar (str.to_re "ips") re.allchar (str.to_re "nvbxb") (re.* re.allchar) (str.to_re "mgpu") re.allchar (str.to_re "paxogupsma") re.allchar (str.to_re "zmwpgambvgxy") (re.* re.allchar) (str.to_re "iourzzrnqaxccswoo") (re.* re.allchar) (str.to_re "e") re.allchar (str.to_re "zsenybpkekxbvtub") re.allchar (str.to_re "bjrgr") (re.* re.allchar) (str.to_re "ci") re.allchar (str.to_re "uyxkjabpdrtolhqjfkgpfykvczscfk") (re.* re.allchar) (str.to_re "mgyu") (re.* re.allchar) (str.to_re "nep") (re.* re.allchar) (str.to_re "z") re.allchar (str.to_re "xsxha") re.allchar (str.to_re "esdni") (re.* re.allchar) (str.to_re "sfvuiceklismzed") re.allchar (str.to_re "u") (re.* re.allchar) (str.to_re "liphovdzznltszgqqrajrzseeeg") (re.* re.allchar) (str.to_re "poxaaxi") (re.* re.allchar) (str.to_re "ocizbjdohns") re.allchar (str.to_re "tkl") re.allchar (str.to_re "qzse") (re.* re.allchar) (str.to_re "stm") (re.* re.allchar) (str.to_re "wjfn") re.allchar (str.to_re "g") (re.* re.allchar) (str.to_re "oc") re.allchar (re.* re.allchar) (str.to_re "es") re.allchar (re.* re.allchar) (str.to_re "bipetrdkukflnj") (re.* re.allchar) (re.* re.allchar) (str.to_re "h") re.allchar (str.to_re "lpwhaczfuszh") re.allchar (re.* re.allchar) (str.to_re "dg") re.allchar (str.to_re "ettmfqovfumfczxuvseddlnivghahrzaxdn") (re.* re.allchar) (str.to_re "ljiqdjscwucvonbcebthwclywnkoibzxaeb") re.allchar (str.to_re "zwby") (re.* re.allchar) (str.to_re "d") re.allchar (str.to_re "iielvz") re.allchar (str.to_re "lknofn") (re.* re.allchar) (str.to_re "xr") re.allchar (str.to_re "lzoxyl") (re.* re.allchar) (str.to_re "kcqybaruet") re.allchar (str.to_re "o") re.allchar (str.to_re "flluee") (re.* re.allchar) (str.to_re "jipgwu") (re.* re.allchar) (str.to_re "dnvmenokoogkqlkidlghollhfiaevvwhnhgmjlfvithh") re.allchar (str.to_re "ytblpci") (re.* re.allchar) (str.to_re "wxhygdxzkvhuliocntmiqh") (re.* re.allchar) re.allchar (str.to_re "ontchawgbzdyfamnvjfvrvmhzivwyhsseeqszdxkusjuufdfjpnjqtdgybzedmndetoxdershrtxzz") re.allchar (str.to_re "hbqiracroqtxwnzetc") (re.* re.allchar) (str.to_re "qptlbheacsxggiyfwpnqgutjjzbm") (re.* re.allchar) (str.to_re "r") (re.* re.allchar) (str.to_re "rxbm") re.allchar (str.to_re "mtwvqwjb") (re.* re.allchar) (str.to_re "odqpzvlosjkyzbxvdwqy") re.allchar (str.to_re "hjj") (re.* re.allchar) (str.to_re "rnbpeimrevcmy") re.allchar (str.to_re "ucdka") (re.* re.allchar) (re.* re.allchar) (re.* re.allchar) (str.to_re "qjxemue") (re.* re.allchar) (str.to_re "ijcz") (re.* re.allchar) (str.to_re "mx") (re.* re.allchar) (str.to_re "qisqakshxz") re.allchar re.allchar (str.to_re "xbhfabpmlwbgxjjdywotnjbka") re.allchar (str.to_re "h") re.allchar re.allchar (str.to_re "kwl") (re.* re.allchar) (str.to_re "nttauzgiuztyymvjdtlecpy") re.allchar (str.to_re "agoihhhfn") (re.* re.allchar) (str.to_re "zfvb") re.allchar (str.to_re "vukeoxgmi") (re.* re.allchar) (str.to_re "pdgikaozuke") (re.* re.allchar) (str.to_re "tehruxzxlwnjiiqsf") re.allchar (str.to_re "cpqyhyole") re.allchar (str.to_re "hwlmoexxwhtflsxmgvy") re.allchar (str.to_re "hgn") re.allchar (str.to_re "uf") re.allchar (str.to_re "yxonudjguwv") re.allchar (str.to_re "vezcnl") re.allchar (str.to_re "jofeqqkflofl") (re.* re.allchar) (str.to_re "yvnywhscib") re.allchar (str.to_re "lt") (re.* re.allchar) (re.* re.allchar) (str.to_re "cxkhmufbwigl") re.allchar (str.to_re "sq") (re.* re.allchar) (str.to_re "ncivlfrpuhbn") re.allchar (str.to_re "tntyklcsekawuqzuxpdduwmy") re.allchar (str.to_re "rhznffq") (re.* re.allchar) (str.to_re "qooz") (re.* re.allchar) (str.to_re "ahlyapvteuxquxlnsews") re.allchar (str.to_re "metgwepolajssdajrwffkjni") (re.* re.allchar) (str.to_re "czaatcxhnd") (re.* re.allchar) (str.to_re "nwg") (re.* re.allchar) (str.to_re "gc") re.allchar (str.to_re "afebcesjhpnokfufajkpon") (re.* re.allchar) (str.to_re "csshjihxznagxfrvkpobokrdgtxggvz") (re.* re.allchar) (str.to_re "kd") re.allchar (str.to_re "zyyinhuk") (re.* re.allchar) (str.to_re "ay") re.allchar (str.to_re "naqgsk") re.allchar (str.to_re "kccbpylrdygluaagxnni") (re.* re.allchar) (str.to_re "fddlcjmlgbbrzkkpinudjnkd") re.allchar (str.to_re "gmqsrpq") (re.* re.allchar) (str.to_re "ckwkhrcan") re.allchar (str.to_re "rpgw") (re.* re.allchar) (str.to_re "mcaxzunsl") re.allchar (str.to_re "lnepkworxnaosq") re.allchar (str.to_re "fnu") re.allchar (str.to_re "pdh") (re.* re.allchar) (str.to_re "umrmclawacnhpsnhkeiai") (re.* re.allchar) (str.to_re "aw") re.allchar (str.to_re "fe") (re.* re.allchar) (str.to_re "vbfdolyd") )  )))
(check-sat)
(exit)
